120
150
60
48
55
48
41
53
52
60
45
60
54
53
50
50
50
60
43
60
54
48
47
48
47
60
52
56
55
42
43
44
51
52
40
58
57
49
48
57
50
44
53
56
47
52
47
60
59
48
46
51
57
53
43
48
42
60
45
50
51
48
45
43
58
51
47
48
40
60
53
53
56
50
47
48
55
44
54
45
55
60
60
44
50
50
51
50
42
55
60
48
52
60
51
56
56
51
46
47
57
45
60
47
51
58
43
52
42
49
52
53
59
43
51
43
44
45
45
40
52
60
